SDVRP instances/custom_instances/p02_11_splitx10_0.vrp
NAME:p02_11_splitx10_
BEST_KNOWN: 0
COMMENT: 0
DIMENSION: 360
CAPACITY: 1400
EDGE_WEIGHT_FORMAT: FUNCTION
EDGE_WEIGHT_TYPE: EXACT_2D
NODE_COORD_SECTION
1 0.00000 0.00000
2 -34 34
3 -34 34
4 -34 34
5 -34 34
6 -34 34
7 -34 34
8 15 11
9 15 11
10 15 11
11 15 11
12 7 -17
13 7 -17
14 7 -17
15 7 -17
16 7 -17
17 7 -17
18 7 -17
19 33 -22
20 33 -22
21 33 -22
22 33 -22
23 14 -41
24 14 -41
25 14 -41
26 -35 -36
27 -35 -36
28 -35 -36
29 -35 -36
30 -35 -36
31 35 -38
32 35 -38
33 35 -38
34 26 -32
35 26 -32
36 26 -32
37 26 -32
38 17 27
39 17 27
40 22 11
41 22 11
42 20 -27
43 20 -27
44 20 -27
45 20 -27
46 -13 -13
47 -13 -13
48 -13 -13
49 -13 -13
50 33 38
51 33 38
52 33 38
53 33 38
54 33 38
55 -7 36
56 -7 36
57 -7 36
58 -7 36
59 -7 36
60 17 29
61 17 29
62 17 29
63 17 29
64 17 29
65 17 29
66 17 29
67 29 12
68 29 12
69 29 12
70 29 12
71 49 -11
72 49 -11
73 49 -11
74 49 -11
75 -31 17
76 -31 17
77 -31 17
78 25 -50
79 25 -50
80 25 -50
81 25 -50
82 25 -50
83 25 -50
84 25 -50
85 -50 34
86 -50 34
87 -50 34
88 -50 34
89 -36 -46
90 -36 -46
91 -36 -46
92 -36 -46
93 -36 -46
94 -36 -46
95 -36 -46
96 47 15
97 47 15
98 47 15
99 47 15
100 -1 -11
101 -1 -11
102 -1 -11
103 -1 -11
104 -48 0
105 -48 0
106 18 39
107 18 39
108 18 39
109 6 -14
110 6 -14
111 6 -14
112 6 -14
113 6 -14
114 6 -14
115 6 -14
116 32 33
117 32 33
118 -43 20
119 -43 20
120 -43 20
121 -43 20
122 -43 20
123 27 33
124 27 33
125 27 33
126 27 33
127 27 33
128 27 33
129 -22 -2
130 -22 -2
131 -22 -2
132 42 24
133 42 24
134 42 24
135 42 24
136 42 24
137 42 24
138 42 24
139 -43 -11
140 -43 -11
141 -43 -11
142 42 36
143 42 36
144 42 36
145 42 36
146 -8 47
147 -8 47
148 -8 47
149 -8 47
150 -8 47
151 -8 47
152 -45 -8
153 -37 -25
154 -37 -25
155 -37 -25
156 -37 -25
157 31 34
158 31 34
159 31 34
160 31 34
161 31 34
162 31 34
163 31 17
164 31 17
165 31 17
166 31 17
167 27 32
168 27 32
169 27 32
170 27 32
171 27 32
172 15 17
173 -42 23
174 -42 23
175 -42 23
176 -23 -34
177 -23 -34
178 -23 -34
179 -23 -34
180 -23 -34
181 -23 -34
182 -23 -34
183 -19 26
184 -19 26
185 -19 26
186 -19 26
187 -19 26
188 -19 26
189 24 2
190 24 2
191 24 2
192 24 2
193 24 2
194 24 2
195 24 2
196 33 -42
197 33 -42
198 33 -42
199 33 -42
200 33 -42
201 33 -42
202 -11 46
203 -11 46
204 -11 46
205 -11 46
206 -11 46
207 -11 46
208 14 -27
209 14 -27
210 14 -27
211 17 6
212 17 6
213 17 6
214 17 6
215 17 6
216 38 8
217 38 8
218 38 8
219 38 8
220 38 8
221 38 8
222 -11 -3
223 -11 -3
224 -11 -3
225 -11 -3
226 -11 -3
227 -11 -3
228 15 -31
229 15 -31
230 15 -31
231 15 -31
232 15 -31
233 40 10
234 40 10
235 40 10
236 40 10
237 40 10
238 39 18
239 39 18
240 39 18
241 39 18
242 39 18
243 39 18
244 39 18
245 39 18
246 -26 -8
247 -26 -8
248 -26 -8
249 -26 -8
250 -26 -8
251 -26 -8
252 -26 -8
253 -24 2
254 -24 2
255 -24 2
256 -24 2
257 -24 2
258 -24 2
259 -24 2
260 -8 8
261 -8 8
262 -8 8
263 -8 8
264 -22 2
265 -22 2
266 -22 2
267 -22 2
268 -22 2
269 -22 2
270 17 5
271 17 5
272 17 5
273 17 5
274 17 5
275 17 5
276 35 19
277 35 19
278 35 19
279 35 19
280 35 19
281 35 19
282 10 39
283 10 39
284 10 39
285 10 39
286 10 39
287 10 39
288 10 39
289 3 47
290 3 47
291 3 47
292 3 47
293 35 -7
294 35 -7
295 35 -7
296 -31 37
297 -31 37
298 -31 37
299 -31 37
300 -31 37
301 -31 37
302 -31 37
303 33 -28
304 33 -28
305 33 -28
306 33 -28
307 33 -28
308 33 -28
309 -26 -10
310 -26 -10
311 -26 -10
312 -26 -10
313 -26 -10
314 -21 -36
315 -21 -36
316 -21 -36
317 -21 -36
318 -21 -36
319 -21 -36
320 -21 -36
321 17 -13
322 17 -13
323 17 -13
324 17 -13
325 -12 -18
326 -25 -16
327 -25 -16
328 -25 -16
329 -25 -16
330 -25 -16
331 -25 -16
332 -25 -16
333 -48 48
334 -48 48
335 -48 48
336 -48 48
337 -48 48
338 -48 48
339 -1 -34
340 -1 -34
341 -1 -34
342 -1 -34
343 -1 -34
344 -1 -34
345 -1 -34
346 14 42
347 14 42
348 14 42
349 -28 40
350 -28 40
351 -28 40
352 -28 40
353 -28 40
354 -28 40
355 23 45
356 23 45
357 31 50
358 31 50
359 31 50
360 31 50
DEMAND_SECTION
1 0
2 280
3 70
4 14
5 14
6 14
7 8
8 280
9 280
10 14
11 6
12 280
13 70
14 14
15 14
16 14
17 14
18 4
19 280
20 140
21 14
22 6
23 280
24 280
25 10
26 280
27 280
28 14
29 14
30 12
31 140
32 70
33 10
34 280
35 14
36 14
37 12
38 280
39 70
40 140
41 70
42 280
43 140
44 14
45 6
46 280
47 280
48 70
49 10
50 140
51 14
52 14
53 14
54 8
55 140
56 14
57 14
58 14
59 8
60 280
61 280
62 70
63 14
64 14
65 14
66 8
67 280
68 280
69 70
70 10
71 140
72 14
73 14
74 2
75 140
76 70
77 10
78 280
79 140
80 70
81 14
82 14
83 14
84 8
85 280
86 14
87 14
88 2
89 280
90 140
91 70
92 14
93 14
94 14
95 8
96 140
97 70
98 14
99 6
100 140
101 14
102 14
103 2
104 280
105 280
106 140
107 70
108 10
109 280
110 280
111 14
112 14
113 14
114 14
115 4
116 280
117 10
118 140
119 70
120 14
121 14
122 2
123 140
124 70
125 14
126 14
127 14
128 8
129 280
130 280
131 70
132 280
133 140
134 70
135 14
136 14
137 14
138 8
139 280
140 280
141 10
142 280
143 14
144 14
145 2
146 280
147 70
148 14
149 14
150 14
151 8
152 280
153 140
154 70
155 14
156 6
157 280
158 280
159 14
160 14
161 14
162 8
163 280
164 14
165 14
166 2
167 140
168 14
169 14
170 14
171 8
172 280
173 280
174 140
175 70
176 280
177 70
178 14
179 14
180 14
181 14
182 4
183 280
184 140
185 70
186 14
187 14
188 12
189 280
190 140
191 14
192 14
193 14
194 14
195 4
196 280
197 280
198 70
199 14
200 14
201 12
202 140
203 70
204 14
205 14
206 14
207 8
208 140
209 70
210 10
211 140
212 70
213 14
214 14
215 2
216 280
217 140
218 70
219 14
220 14
221 2
222 280
223 280
224 14
225 14
226 14
227 8
228 140
229 14
230 14
231 14
232 8
233 140
234 14
235 14
236 14
237 8
238 280
239 140
240 70
241 14
242 14
243 14
244 14
245 4
246 280
247 140
248 70
249 14
250 14
251 14
252 8
253 280
254 70
255 14
256 14
257 14
258 14
259 4
260 280
261 140
262 70
263 10
264 280
265 280
266 70
267 14
268 14
269 2
270 280
271 280
272 70
273 14
274 14
275 2
276 280
277 70
278 14
279 14
280 14
281 8
282 280
283 70
284 14
285 14
286 14
287 14
288 4
289 280
290 14
291 14
292 12
293 280
294 14
295 6
296 280
297 70
298 14
299 14
300 14
301 14
302 4
303 280
304 140
305 70
306 14
307 14
308 12
309 140
310 14
311 14
312 14
313 8
314 280
315 140
316 14
317 14
318 14
319 14
320 4
321 280
322 140
323 14
324 6
325 280
326 140
327 70
328 14
329 14
330 14
331 14
332 4
333 280
334 140
335 14
336 14
337 14
338 8
339 280
340 280
341 70
342 14
343 14
344 14
345 8
346 280
347 140
348 10
349 280
350 140
351 70
352 14
353 14
354 12
355 140
356 70
357 280
358 280
359 14
360 6
DEPOT_SECTION
1
-1
EOF