SDVRP instances/custom_instances/p02_11_splitx10_0.sol
359 -9 8 7 10 214 210 273 272 269 270 271 274 -36 35 34 33 200 195 198 199 197 196 30 31 32 306 303 -43 41 44 42 208 209 207 340 339 344 341 343 338 342 102 101 100 -48 92 93 91 90 89 88 94 25 29 27 26 28 153 155 154 152 330 331 -58 54 56 55 57 201 206 205 203 204 202 146 150 147 149 145 148 288 290 291 289 -62 63 60 61 65 64 59 38 37 171 -76 74 75 174 172 117 118 119 121 120 103 104 -98 96 97 95 134 131 136 133 137 132 135 243 240 237 242 239 238 244 241 280 277 278 279 -99 324 46 45 47 128 130 -106 107 105 345 347 346 283 284 286 282 285 287 281 -111 108 109 114 12 13 17 11 16 320 323 322 321 -112 113 110 14 15 22 23 24 78 79 77 80 82 83 81 230 231 228 227 229 -116 115 159 158 161 157 156 160 125 124 127 126 123 122 167 166 168 169 170 -129 252 253 254 256 257 258 255 268 264 263 266 267 265 -141 142 144 143 49 53 52 50 51 356 357 358 359 354 355 -151 138 140 139 251 250 246 247 245 248 249 -163 164 165 162 276 275 233 236 235 232 234 215 216 219 217 220 218 192 190 -173 87 86 84 85 336 335 334 337 332 333 3 1 4 2 6 5 184 -182 186 187 185 183 351 352 353 349 350 348 301 295 299 298 296 300 297 -188 191 194 193 189 68 66 67 69 40 39 211 212 213 -221 226 222 224 225 223 -260 259 262 261 -292 293 294 70 73 71 72 21 20 18 19 304 307 302 305 -308 309 311 310 312 327 326 325 328 329 177 175 179 176 178 180 181 319 318 316 313 317 315 314 0 





OBJ=
2140.833
BEST_KNOWN=
0.000